presolving:
   (0.2s) running MILP presolver
   (0.3s) MILP presolver found nothing
(round 1, exhaustive) 0 del vars, 7 del conss, 0 add conss, 0 chg bounds, 0 chg sides, 0 chg coeffs, 15002 upgd conss, 0 impls, 15000 clqs
   (0.6s) probing: 51/13509 (0.4%) - 0 fixings, 0 aggregations, 0 implications, 0 bound changes
   (0.6s) probing aborted: 50/50 successive totally useless probings
   (0.6s) symmetry computation started: requiring (bin +, int -, cont +), (fixed: bin -, int +, cont -)
   (0.7s) symmetry computation finished: 2 generators found (max: 1500, log10 of symmetry group size: 0.8)
presolving (2 rounds: 2 fast, 2 medium, 2 exhaustive):
 0 deleted vars, 7 deleted constraints, 1 added constraints, 0 tightened bounds, 0 added holes, 0 changed sides, 0 changed coefficients
 0 implications, 15000 cliques
presolved problem has 13509 variables (13509 bin, 0 int, 0 impl, 0 cont) and 15003 constraints
      2 constraints of type <knapsack>
  15000 constraints of type <setppc>
      1 constraints of type <orbitope>
Presolving Time: 0.66

 time | node  | left  |LP iter|LP it/n|mem/heur|mdpt |vars |cons |rows |cuts |sepa|confs|strbr|  dualbound   | primalbound  |  gap   | compl. 
p 1.0s|     1 |     0 |     0 |     - |  clique|   0 |  13k|  15k|  15k|   0 |  0 |   0 |   0 |-1.313793e+03 |-6.901091e+05 |  Large | unknown
  2.2s|     1 |     0 |  4857 |     - |   213M |   0 |  13k|  15k|  15k|   0 |  0 |   1 |   0 |-6.830881e+05 |-6.901091e+05 |   1.03%| unknown
r 2.5s|     1 |     0 |  4857 |     - |rounding|   0 |  13k|  15k|  15k|   0 |  0 |   1 |   0 |-6.830881e+05 |-6.890321e+05 |   0.87%| unknown
  4.4s|     1 |     0 |  4865 |     - |   217M |   0 |  13k|  15k|  15k|   3 |  1 |   1 |   0 |-6.831011e+05 |-6.890321e+05 |   0.87%| unknown
  5.9s|     1 |     0 |  4890 |     - |   218M |   0 |  13k|  15k|  15k|   6 |  2 |   1 |   0 |-6.831121e+05 |-6.890321e+05 |   0.87%| unknown
  7.5s|     1 |     0 |  4908 |     - |   220M |   0 |  13k|  15k|  15k|   8 |  3 |   1 |   0 |-6.831296e+05 |-6.890321e+05 |   0.86%| unknown
  8.8s|     1 |     0 |  5046 |     - |   222M |   0 |  13k|  15k|  15k|  11 |  4 |   1 |   0 |-6.831671e+05 |-6.890321e+05 |   0.86%| unknown
 10.2s|     1 |     0 |  5053 |     - |   225M |   0 |  13k|  15k|  15k|  13 |  5 |   1 |   0 |-6.831756e+05 |-6.890321e+05 |   0.86%| unknown
 11.7s|     1 |     0 |  5055 |     - |   226M |   0 |  13k|  15k|  15k|  15 |  6 |   1 |   0 |-6.831756e+05 |-6.890321e+05 |   0.86%| unknown
 13.2s|     1 |     0 |  5057 |     - |   228M |   0 |  13k|  15k|  15k|  17 |  7 |   1 |   0 |-6.831756e+05 |-6.890321e+05 |   0.86%| unknown
 14.7s|     1 |     0 |  5058 |     - |   229M |   0 |  13k|  15k|  15k|  18 |  8 |   1 |   0 |-6.831756e+05 |-6.890321e+05 |   0.86%| unknown
 16.1s|     1 |     0 |  5061 |     - |   231M |   0 |  13k|  15k|  15k|  19 |  9 |   1 |   0 |-6.831756e+05 |-6.890321e+05 |   0.86%| unknown
 17.6s|     1 |     0 |  5063 |     - |   233M |   0 |  13k|  15k|  15k|  21 | 10 |   1 |   0 |-6.831756e+05 |-6.890321e+05 |   0.86%| unknown
 18.7s|     1 |     0 |  5064 |     - |   234M |   0 |  13k|  15k|  15k|  22 | 11 |   1 |   0 |-6.831756e+05 |-6.890321e+05 |   0.86%| unknown
d19.3s|     1 |     0 |  9063 |     - |farkasdi|   0 |  13k|  15k|  15k|   0 | 11 |   1 |   0 |-6.831756e+05 |-6.860141e+05 |   0.42%| unknown
 time | node  | left  |LP iter|LP it/n|mem/heur|mdpt |vars |cons |rows |cuts |sepa|confs|strbr|  dualbound   | primalbound  |  gap   | compl. 
 20.2s|     1 |     0 | 11837 |     - |   237M |   0 |  13k|  15k|  15k|  22 | 11 |   2 |   0 |-6.831756e+05 |-6.860141e+05 |   0.42%| unknown
 21.2s|     1 |     0 | 11838 |     - |   238M |   0 |  13k|  15k|  15k|  23 | 12 |   2 |   0 |-6.831756e+05 |-6.860141e+05 |   0.42%| unknown
 21.6s|     1 |     0 | 11849 |     - |   239M |   0 |  13k|  15k|  15k|  28 | 13 |   2 |   0 |-6.831891e+05 |-6.860141e+05 |   0.41%| unknown
 23.7s|     1 |     2 | 11856 |     - |   239M |   0 |  13k|  15k|  15k|  28 | 13 |   2 |  21 |-6.831941e+05 |-6.860141e+05 |   0.41%| unknown
*29.6s|     5 |     2 | 15005 |2482.2 |    LP  |   3 |  13k|  15k|  15k|  28 |  2 |   3 | 100 |-6.831941e+05 |-6.856391e+05 |   0.36%|  26.31%
*35.6s|     9 |     2 | 19719 |1830.4 |    LP  |   3 |  13k|  13k|  15k|  28 |  3 |   4 | 195 |-6.838044e+05 |-6.856031e+05 |   0.26%|  54.82%

SCIP Status        : problem is solved [optimal solution found]
Solving Time (sec) : 43.49
Solving Nodes      : 17
Primal Bound       : -6.85603104610273e+05 (14 solutions)
Dual Bound         : -6.85603104610273e+05
Gap                : 0.00 %
Solve Status: optimal
Solve Time: 43.50 seconds
Objective Value: -685603.10
